g3 1 1 0	# problem unknown
 2 0 14 0 0 	# vars, constraints, objectives, ranges, eqns
 0 13 0 0 0 0	# nonlinear constrs, objs; ccons: lin, nonlin, nd, nzlb
 0 0	# network constraints: nonlinear, linear
 0 2 0 	# nonlinear vars in constraints, objectives, both
 0 0 0 1	# linear network variables; functions; arith, flags
 0 0 0 0 0 	# discrete variables: binary, integer, nonlinear (b,c,o)
 0 20 	# nonzeros in Jacobian, obj. gradient
 0 0	# max name lengths: constraints, variables
 0 0 0 0 0	# common exprs: b,c,o,c1,o1
O0 0
o0
o54
6
o43
v0
o16
o43
v1
o2
n-49.8651
o5
v1
n-0.1
o2
n2.303
o43
o0
o16
o44
o2
n-0.92578
v1
n1
o2
n5.086
o43
o0
o16
o44
o2
n-2.22895
v1
n1
o2
n7.3
o43
o0
o16
o44
o2
n-5.03283
v1
n1
n37.2674
O1 0
o3
n1.0
v0
O2 0
o3
n-1.0
o5
v0
n2
O3 0
o0
o54
5
o3
n-1.0
v1
o2
n4.98651
o5
v1
n-1.1
o3
n2.13207134
o0
o44
o2
n0.92578
v1
n-1
o3
n11.336439700000001
o0
o44
o2
n2.22895
v1
n-1
o3
n36.739658999999996
o0
o44
o2
n5.03283
v1
n-1
n8.88404
O4 0
o54
3
o3
n1.0
o5
v1
n2
o2
n-5.485161000000001
o5
v1
n-2.1
o16
o54
3
o3
o2
n1.9738290051452
o44
o2
n0.92578
v1
o5
o0
o44
o2
n0.92578
v1
n-1
n2
o3
o2
n25.268357269315004
o44
o2
n2.22895
v1
o5
o0
o44
o2
n2.22895
v1
n-1
n2
o3
o2
n184.90445800497
o44
o2
n5.03283
v1
o5
o0
o44
o2
n5.03283
v1
n-1
n2
O5 0
o54
18
o2
o2
n5.28076
v0
o5
v1
n0.669
o2
o2
n-8.67658
v0
o5
v1
n1.05
o2
o2
n0.7501127
v0
o5
v1
n2.75
o2
o2
n0.7590023
o5
v0
n2
o5
v1
n0.956
o2
o2
n0.01451899
o5
v0
n4
v1
o2
o2
o2
n4.777189
v0
o5
v1
n2.0
o44
o2
n-1
v0
o2
o2
o2
n-3.330988
v0
o5
v1
n2.75
o44
o2
n-1
v0
o2
o2
o2
n3.775673
o5
v0
n2
o5
v1
n2.38
o44
o2
n-1
v0
o2
o2
o2
n-2.290919
o5
v0
n2
o5
v1
n3.37
o44
o2
n-1
v0
o2
o2
o2
n0.8888268
o5
v0
n3
o5
v1
n3.47
o44
o2
n-1
v0
o2
o2
o2
n-0.6234864
o5
v0
n4
o5
v1
n2.63
o44
o2
n-1
v0
o2
o2
o2
n-0.04127263
o5
v0
n5
o5
v1
n3.45
o44
o2
n-1
v0
o2
o2
o2
n-0.08455389
v0
o5
v1
n0.72
o44
o16
o5
v0
n2
o2
o2
o2
n-0.1308752
o5
v0
n5
o5
v1
n4.23
o44
o16
o5
v0
n2
o2
o2
o2
n0.008344962
v0
o5
v1
n0.2
o44
o16
o5
v0
n3
o2
o2
o2
o2
n-1.532005
o5
v0
n2
o5
v1
n4.5
o44
o16
o5
v0
n2
o44
o16
o5
v1
n1.7
o2
o2
o2
o2
n-0.05883649
o5
v0
n3
o5
v1
n29.0
o44
o16
o5
v0
n3
o44
o16
o5
v1
n7.0
o2
o2
o2
o2
n0.02296658
o5
v0
n5
o5
v1
n24.0
o44
o16
o5
v0
n3
o44
o16
o5
v1
n6.0
O6 0
o54
18
o2
n5.28076
o5
v1
n0.669
o2
n-8.67658
o5
v1
n1.05
o2
n0.7501127
o5
v1
n2.75
o2
o2
n1.5180046
v0
o5
v1
n0.956
o2
o2
n0.05807596
o5
v0
n3
v1
o2
o2
o2
n4.777189
o44
o2
n-1
v0
o5
v1
n2.0
o0
o2
n-1
v0
n1
o2
o2
o2
n-3.330988
o44
o2
n-1
v0
o5
v1
n2.75
o0
o2
n-1
v0
n1
o2
o2
o2
o2
n3.775673
o44
o2
n-1
v0
v0
o5
v1
n2.38
o0
o2
n-1
v0
n2
o2
o2
o2
o2
n-2.290919
o44
o2
n-1
v0
v0
o5
v1
n3.37
o0
o2
n-1
v0
n2
o2
o2
o2
o2
n0.8888268
o44
o2
n-1
v0
o5
v0
n2
o5
v1
n3.47
o0
o2
n-1
v0
n3
o2
o2
o2
o2
n-0.6234864
o44
o2
n-1
v0
o5
v0
n3
o5
v1
n2.63
o0
o2
n-1
v0
n4
o2
o2
o2
o2
n-0.04127263
o44
o2
n-1
v0
o5
v0
n4
o5
v1
n3.45
o0
o2
n-1
v0
n5
o2
o2
o2
n-0.08455389
o44
o16
o5
v0
n2
o5
v1
n0.72
o0
o2
n-2
o5
v0
n2
n1
o2
o2
o2
o2
n-0.1308752
o44
o16
o5
v0
n2
o5
v0
n4
o5
v1
n4.23
o0
o2
n-2
o5
v0
n2
n5
o2
o2
o2
n0.008344962
o44
o16
o5
v0
n3
o5
v1
n0.2
o0
o2
n-3
o5
v0
n3
n1
o2
o2
o2
o2
o2
n-1.532005
o44
o16
o5
v0
n2
v0
o5
v1
n4.5
o0
o2
n-2
o5
v0
n2
n2
o44
o16
o5
v1
n1.7
o2
o2
o2
o2
o2
n-0.05883649
o44
o16
o5
v0
n3
o5
v0
n2
o5
v1
n29.0
o0
o2
n-3
o5
v0
n3
n3
o44
o16
o5
v1
n7.0
o2
o2
o2
o2
o2
n0.02296658
o44
o16
o5
v0
n3
o5
v0
n4
o5
v1
n24.0
o0
o2
n-3
o5
v0
n3
n5
o44
o16
o5
v1
n6.0
O7 0
o54
15
o2
n1.5180046
o5
v1
n0.956
o2
o2
n0.17422788
o5
v0
n2
v1
o2
o2
o2
o2
n4.777189
o44
o2
n-1
v0
o5
v0
n-1
o5
v1
n2.0
o0
o2
n-1
v0
o2
o0
o2
n-1
v0
n1
o2
n-1
v0
o2
o2
o2
o2
n-3.330988
o44
o2
n-1
v0
o5
v0
n-1
o5
v1
n2.75
o0
o2
n-1
v0
o2
o0
o2
n-1
v0
n1
o2
n-1
v0
o2
o2
o2
n3.775673
o44
o2
n-1
v0
o5
v1
n2.38
o0
o2
n-1
v0
o2
o0
o2
n-1
v0
n2
o0
o2
n-1
v0
n1
o2
o2
o2
n-2.290919
o44
o2
n-1
v0
o5
v1
n3.37
o0
o2
n-1
v0
o2
o0
o2
n-1
v0
n2
o0
o2
n-1
v0
n1
o2
o2
o2
o2
n0.8888268
o44
o2
n-1
v0
v0
o5
v1
n3.47
o0
o2
n-1
v0
o2
o0
o2
n-1
v0
n3
o0
o2
n-1
v0
n2
o2
o2
o2
o2
n-0.6234864
o44
o2
n-1
v0
o5
v0
n2
o5
v1
n2.63
o0
o2
n-1
v0
o2
o0
o2
n-1
v0
n4
o0
o2
n-1
v0
n3
o2
o2
o2
o2
n-0.04127263
o44
o2
n-1
v0
o5
v0
n3
o5
v1
n3.45
o0
o2
n-1
v0
o2
o0
o2
n-1
v0
n5
o0
o2
n-1
v0
n4
o2
o2
o2
o2
n-0.08455389
o44
o16
o5
v0
n2
o5
v0
n-1
o5
v1
n0.72
o0
o2
o0
o2
n-2
o5
v0
n2
n1
o2
n-2
o5
v0
n2
o2
n-4
o5
v0
n2
o2
o2
o2
o2
n-0.1308752
o44
o16
o5
v0
n2
o5
v0
n3
o5
v1
n4.23
o0
o2
o0
o2
n-2
o5
v0
n2
n5
o0
o2
n-2
o5
v0
n2
n4
o2
n-4
o5
v0
n2
o2
o2
o2
o2
n0.008344962
o44
o16
o5
v0
n3
o5
v0
n-1
o5
v1
n0.2
o0
o2
o0
o2
n-3
o5
v0
n3
n1
o2
n-3
o5
v0
n3
o2
n-9
o5
v0
n3
o2
o2
o2
o2
n-1.532005
o44
o16
o5
v0
n2
o5
v1
n4.5
o0
o2
o0
o2
n-2
o5
v0
n2
n2
o0
o2
n-2
o5
v0
n2
n1
o2
n-4
o5
v0
n2
o44
o16
o5
v1
n1.7
o2
o2
o2
o2
o2
n-0.05883649
o44
o16
o5
v0
n3
v0
o5
v1
n29.0
o0
o2
o0
o2
n-3
o5
v0
n3
n3
o0
o2
n-3
o5
v0
n3
n2
o2
n-9
o5
v0
n3
o44
o16
o5
v1
n7.0
o2
o2
o2
o2
o2
n0.02296658
o44
o16
o5
v0
n3
o5
v0
n3
o5
v1
n24.0
o0
o2
o0
o2
n-3
o5
v0
n3
n5
o0
o2
n-3
o5
v0
n3
n4
o2
n-9
o5
v0
n3
o44
o16
o5
v1
n6.0
O8 0
o54
18
o2
o2
n3.5328284400000003
v0
o5
v1
n-0.33099999999999996
o2
o2
n-9.110409
v0
o5
v1
n0.050000000000000044
o2
o2
n2.062809925
v0
o5
v1
n1.75
o2
o2
n0.7256061988
o5
v0
n2
o5
v1
n-0.04400000000000004
o2
n0.01451899
o5
v0
n4
o2
o2
o2
n9.554378
v0
v1
o44
o2
n-1
v0
o2
o2
o2
n-9.160217
v0
o5
v1
n1.75
o44
o2
n-1
v0
o2
o2
o2
n8.986101739999999
o5
v0
n2
o5
v1
n1.38
o44
o2
n-1
v0
o2
o2
o2
n-7.720397030000001
o5
v0
n2
o5
v1
n2.37
o44
o2
n-1
v0
o2
o2
o2
n3.0842289960000002
o5
v0
n3
o5
v1
n2.47
o44
o2
n-1
v0
o2
o2
o2
n-1.639769232
o5
v0
n4
o5
v1
n1.63
o44
o2
n-1
v0
o2
o2
o2
n-0.1423905735
o5
v0
n5
o5
v1
n2.45
o44
o2
n-1
v0
o2
o2
o2
n-0.0608788008
v0
o5
v1
n-0.28
o44
o16
o5
v0
n2
o2
o2
o2
n-0.5536020960000001
o5
v0
n5
o5
v1
n3.2300000000000004
o44
o16
o5
v0
n2
o2
o2
o2
n0.0016689924
v0
o5
v1
n-0.8
o44
o16
o5
v0
n3
o2
o2
o2
o2
o2
n-1.532005
o5
v0
n2
o5
v1
n3.5
o44
o16
o5
v0
n2
o44
o16
o5
v1
n1.7
o0
o2
n-1.7
o5
v1
n1.7
n4.5
o2
o2
o2
o2
o2
n-0.05883649
o5
v0
n3
o5
v1
n28.0
o44
o16
o5
v0
n3
o44
o16
o5
v1
n7.0
o0
o2
n-7.0
o5
v1
n7.0
n29.0
o2
o2
o2
o2
o2
n0.02296658
o5
v0
n5
o5
v1
n23.0
o44
o16
o5
v0
n3
o44
o16
o5
v1
n6.0
o0
o2
n-6.0
o5
v1
n6.0
n24.0
O9 0
o54
17
o2
o2
n-1.16936621364
v0
o5
v1
n-1.331
o2
o2
n-0.4555204500000004
v0
o5
v1
n-0.95
o2
o2
n3.6099173687499997
v0
o5
v1
n0.75
o2
o2
n-0.03192667274720003
o5
v0
n2
o5
v1
n-1.044
o2
o2
n9.554378
v0
o44
o2
n-1
v0
o2
o2
o2
n-16.030379749999998
v0
o5
v1
n0.75
o44
o2
n-1
v0
o2
o2
o2
n12.400820401199997
o5
v0
n2
o5
v1
n0.3799999999999999
o44
o2
n-1
v0
o2
o2
o2
n-18.2973409611
o5
v0
n2
o5
v1
n1.37
o44
o2
n-1
v0
o2
o2
o2
n7.618045620120001
o5
v0
n3
o5
v1
n1.4700000000000002
o44
o2
n-1
v0
o2
o2
o2
n-2.6728238481599997
o5
v0
n4
o5
v1
n0.6299999999999999
o44
o2
n-1
v0
o2
o2
o2
n-0.34885690507500006
o5
v0
n5
o5
v1
n1.4500000000000002
o44
o2
n-1
v0
o2
o2
o2
n0.017046064224000002
v0
o5
v1
n-1.28
o44
o16
o5
v0
n2
o2
o2
o2
n-1.7881347700800005
o5
v0
n5
o5
v1
n2.2300000000000004
o44
o16
o5
v0
n2
o2
o2
o2
n-0.00133519392
v0
o5
v1
n-1.8
o44
o16
o5
v0
n3
o2
o2
o2
o2
o2
n-1.532005
o5
v0
n2
o5
v1
n2.5
o44
o16
o5
v0
n2
o44
o16
o5
v1
n1.7
o0
o2
o0
o2
n-1.7
o5
v1
n1.7
n4.5
o0
o2
n-1.7
o5
v1
n1.7
n3.5
o2
n-2.8899999999999997
o5
v1
n1.7
o2
o2
o2
o2
o2
n-0.05883649
o5
v0
n3
o5
v1
n27.0
o44
o16
o5
v0
n3
o44
o16
o5
v1
n7.0
o0
o2
o0
o2
n-7.0
o5
v1
n7.0
n29.0
o0
o2
n-7.0
o5
v1
n7.0
n28.0
o2
n-49.0
o5
v1
n7.0
o2
o2
o2
o2
o2
n0.02296658
o5
v0
n5
o5
v1
n22.0
o44
o16
o5
v0
n3
o44
o16
o5
v1
n6.0
o0
o2
o0
o2
n-6.0
o5
v1
n6.0
n24.0
o0
o2
n-6.0
o5
v1
n6.0
n23.0
o2
n-36.0
o5
v1
n6.0
O10 0
o54
18
o2
n3.5328284400000003
o5
v1
n-0.33099999999999996
o2
n-9.110409
o5
v1
n0.050000000000000044
o2
n2.062809925
o5
v1
n1.75
o2
o2
n1.4512123976
v0
o5
v1
n-0.04400000000000004
o2
n0.05807596
o5
v0
n3
o2
o2
o2
n9.554378
v1
o0
o2
n-1
v0
n1
o44
o2
n-1
v0
o2
o2
o2
n-9.160217
o5
v1
n1.75
o0
o2
n-1
v0
n1
o44
o2
n-1
v0
o2
o2
o2
o2
n8.986101739999999
v0
o5
v1
n1.38
o0
o2
n-1
v0
n2
o44
o2
n-1
v0
o2
o2
o2
o2
n-7.720397030000001
v0
o5
v1
n2.37
o0
o2
n-1
v0
n2
o44
o2
n-1
v0
o2
o2
o2
o2
n3.0842289960000002
o5
v0
n2
o5
v1
n2.47
o0
o2
n-1
v0
n3
o44
o2
n-1
v0
o2
o2
o2
o2
n-1.639769232
o5
v0
n3
o5
v1
n1.63
o0
o2
n-1
v0
n4
o44
o2
n-1
v0
o2
o2
o2
o2
n-0.1423905735
o5
v0
n4
o5
v1
n2.45
o0
o2
n-1
v0
n5
o44
o2
n-1
v0
o2
o2
o2
n-0.0608788008
o5
v1
n-0.28
o0
o2
n-2
o5
v0
n2
n1
o44
o16
o5
v0
n2
o2
o2
o2
o2
n-0.5536020960000001
o5
v0
n4
o5
v1
n3.2300000000000004
o0
o2
n-2
o5
v0
n2
n5
o44
o16
o5
v0
n2
o2
o2
o2
n0.0016689924
o5
v1
n-0.8
o0
o2
n-3
o5
v0
n3
n1
o44
o16
o5
v0
n3
o2
o2
o2
o2
o2
o2
n-1.532005
v0
o5
v1
n3.5
o0
o2
n-2
o5
v0
n2
n2
o0
o2
n-1.7
o5
v1
n1.7
n4.5
o44
o16
o5
v0
n2
o44
o16
o5
v1
n1.7
o2
o2
o2
o2
o2
o2
n-0.05883649
o5
v0
n2
o5
v1
n28.0
o0
o2
n-3
o5
v0
n3
n3
o0
o2
n-7.0
o5
v1
n7.0
n29.0
o44
o16
o5
v0
n3
o44
o16
o5
v1
n7.0
o2
o2
o2
o2
o2
o2
n0.02296658
o5
v0
n4
o5
v1
n23.0
o0
o2
n-3
o5
v0
n3
n5
o0
o2
n-6.0
o5
v1
n6.0
n24.0
o44
o16
o5
v0
n3
o44
o16
o5
v1
n6.0
O11 0
o0
o54
3
o2
n1.6684
o5
o0
o16
o3
n1
v1
n1
n0.3333333333333333
o2
n0.88415
o5
o0
o16
o3
n1
v1
n1
n0.6
o2
n0.44383
o5
o0
o16
o3
n1
v1
n1
n2.9
n1.0
O12 0
o44
o54
4
o2
n-2.8403
o5
o0
o16
o3
n1
v1
n1
n0.38
o2
n-7.2738
o5
o0
o16
o3
n1
v1
n1
n1.22
o2
n-21.89
o5
o0
o16
o3
n1
v1
n1
n3.3
o2
n-58.825
o5
o0
o16
o3
n1
v1
n1
n6.9
O13 0
n0.0
x2
0 1.0
1 1.0
r
b
3
3
k1
0
G0 2
0 0
1 8.88404
G1 1
0 0
G2 1
0 0
G3 1
1 0
G4 1
1 0
G5 2
0 0
1 0
G6 2
0 0
1 0
G7 2
0 0
1 0
G8 2
0 0
1 0
G9 2
0 0
1 0
G10 2
0 0
1 0
G11 1
1 0
G12 1
1 0
